/* Objective function */
max: ;

/* Constraints */
R1: +x1 <= 0;
+x2 +x4 <= 0;
0 x1 <= 0;
R4: +x3 <= 0;
0 x1 <= 1;
R6: +x1 >= 0;
R7: +x3 >= 1;
R8: +x2 >= 0;
R9: +x4 >= 0;
R10: +x1 >= 0;
R11: +x2 >= 0;
R12: +x3 >= 0;
R13: +x4 >= 0;
